
Log started (V12.6.3.0) Wed Jan 31 23:01:41 2018

New value for default parallel thread count: 1

Problem '/tmp/tmpSRfim8.pyomo.lp' read.
Read time = 1.02 sec. (61.57 ticks)

Problem name         : /tmp/tmpSRfim8.pyomo.lp
Objective sense      : Minimize
Variables            :  883388  [Nneg: 876826,  Binary: 6561,
                                 General Integer: 1]
Objective nonzeros   :       1
Linear constraints   :   27949  [Less: 6561,  Equal: 21388]
  Nonzeros           : 2629740
  RHS nonzeros       :    5750

Variables            : Min LB: 0.000000         Max UB: 1.000000       
Objective nonzeros   : Min   : 1.000000         Max   : 1.000000       
Linear constraints   :
  Nonzeros           : Min   : 0.3000000        Max   : 3273.480       
  RHS nonzeros       : Min   : 0.1200000        Max   : 15888.98       
Tried aggregator 2 times.
MIP Presolve eliminated 16133 rows and 762143 columns.
MIP Presolve added 4 rows and 0 columns.
Aggregator did 2744 substitutions.
Reduced MIP has 9076 rows, 118501 columns, and 345794 nonzeros.
Reduced MIP has 3440 binaries, 0 generals, 0 SOSs, and 0 indicators.
Presolve time = 0.92 sec. (671.67 ticks)
Tried aggregator 1 time.
MIP Presolve eliminated 27 rows and 0 columns.
MIP Presolve added 54 rows and 0 columns.
Reduced MIP has 9103 rows, 118501 columns, and 345821 nonzeros.
Reduced MIP has 3440 binaries, 0 generals, 0 SOSs, and 0 indicators.
Presolve time = 0.15 sec. (124.70 ticks)
Probing time = 0.02 sec. (12.35 ticks)
Clique table members: 6.
MIP emphasis: balance optimality and feasibility.
MIP search method: dynamic search.
Parallel mode: none, using 1 thread.
Root relaxation solution time = 46.71 sec. (72695.37 ticks)

        Nodes                                         Cuts/
   Node  Left     Objective  IInf  Best Integer    Best Bound    ItCnt     Gap

      0     0      121.9039   227                    121.9039   195862         
*     0+    0                          273.0000      121.9039            55.35%
      0     0      124.0790   286      273.0000    Cuts: 2375   260938   54.55%
      0     0      126.6942   286      273.0000    Cuts: 2375   315018   53.59%
      0     0      127.4138   283      273.0000    Cuts: 2375   361975   53.33%
      0     0      128.3990   317      273.0000    Cuts: 2375   423567   52.97%
      0     0      128.7796   336      273.0000    Cuts: 2375   457656   52.83%
      0     0      129.1375   351      273.0000    Cuts: 2375   519605   52.70%
      0     0      129.3447   367      273.0000    Cuts: 2375   584121   52.62%
      0     0      129.5133   372      273.0000    Cuts: 2375   626847   52.56%
      0     0      129.6452   388      273.0000    Cuts: 2375   675395   52.51%
      0     0      129.7468   409      273.0000    Cuts: 2375   722700   52.47%
      0     0      129.8153   438      273.0000    Cuts: 2375   759253   52.45%
      0     0      129.9565   427      273.0000    Cuts: 2375   808824   52.40%
      0     0      130.0409   437      273.0000    Cuts: 2375   863082   52.37%
      0     0      130.1077   451      273.0000    Cuts: 2375   909956   52.34%
      0     0      130.1832   474      273.0000    Cuts: 2375  1010270   52.31%
      0     0      130.2468   470      273.0000    Cuts: 2375  1056534   52.29%
      0     0      130.3071   465      273.0000    Cuts: 2375  1187477   52.27%
      0     0      130.3844   455      273.0000    Cuts: 2375  1254061   52.24%
      0     0      130.4614   457      273.0000    Cuts: 2375  1332729   52.21%
      0     0      130.5138   459      273.0000    Cuts: 2375  1376668   52.19%
      0     0      130.5781   467      273.0000    Cuts: 2375  1427421   52.17%
      0     0      130.6195   499      273.0000    Cuts: 2375  1492163   52.15%
      0     0      130.6590   489      273.0000    Cuts: 2375  1605942   52.14%
      0     0      130.6866   485      273.0000    Cuts: 2375  1653335   52.13%
      0     0      130.7134   484      273.0000    Cuts: 2375  1723779   52.12%
Heuristic still looking.
Heuristic still looking.
Heuristic still looking.
      0     2      130.7134   484      273.0000      130.7134  1723779   52.12%
Elapsed time = 6905.29 sec. (9179918.65 ticks, tree = 0.01 MB, solutions = 1)
      2     4      130.7134   482      273.0000      130.7134  1723854   52.12%
      3     5      130.7949   464      273.0000      130.7134  1771855   52.12%
      4     6      130.7209   476      273.0000      130.7134  1783118   52.12%
      5     7      130.7561   493      273.0000      130.7134  1787783   52.12%
      6     8      130.7651   485      273.0000      130.7134  1820571   52.12%
      7     9      130.7563   485      273.0000      130.7134  1822591   52.12%
      8    10      130.7662   482      273.0000      130.7134  1847958   52.12%
      9    11      130.7884   471      273.0000      130.7134  1905254   52.12%
     10    12      130.8072   479      273.0000      130.7134  1941709   52.12%
     11    13      130.8732   459      273.0000      130.7134  2002074   52.12%
Elapsed time = 7784.77 sec. (10378732.37 ticks, tree = 2.30 MB, solutions = 1)
     12    14      130.8778   458      273.0000      130.7134  2018285   52.12%
     13    15      130.9518   452      273.0000      130.7134  2082457   52.12%
     14    16      130.9278   431      273.0000      130.7134  2130581   52.12%
     15    17      130.9516   429      273.0000      130.7134  2171867   52.12%
     16    18      130.9954   412      273.0000      130.7134  2209423   52.12%
     17    19      130.9954   410      273.0000      130.7134  2209606   52.12%
     18    20      131.0101   404      273.0000      130.7134  2280680   52.12%
     19    21      131.0102   405      273.0000      130.7134  2282827   52.12%
     20    22      131.0102   401      273.0000      130.7134  2282930   52.12%
     21    23      131.0220   397      273.0000      130.7134  2325863   52.12%
Elapsed time = 8905.28 sec. (11924221.05 ticks, tree = 6.93 MB, solutions = 1)
     22    24      131.0248   397      273.0000      130.7134  2363373   52.12%
     23    25      131.0332   396      273.0000      130.7134  2474263   52.12%
     24    26      131.0311   404      273.0000      130.7134  2510250   52.12%
     25    27      131.0356   391      273.0000      130.7134  2558006   52.12%
     26    28      131.0518   391      273.0000      130.7134  2579443   52.12%
     27    29      131.1133   380      273.0000      130.7134  2612260   52.12%
     28    30      131.1315   383      273.0000      130.7134  2656826   52.12%
     29    31      131.1995   381      273.0000      130.7134  2739541   52.12%
     30    32      131.1375   378      273.0000      130.7134  2751645   52.12%
     31    33      131.1393   376      273.0000      130.7134  2772877   52.12%
Elapsed time = 10084.85 sec. (13507554.96 ticks, tree = 9.02 MB, solutions = 1)
     32    34      131.1540   370      273.0000      130.7134  2789248   52.12%
     33    35      131.1622   370      273.0000      130.7134  2813496   52.12%
     34    36      131.1656   377      273.0000      130.7134  2832985   52.12%
     35    37      131.2271   374      273.0000      130.7134  2874835   52.12%
     36    38      131.2540   360      273.0000      130.7134  2915229   52.12%
     37    39      131.2604   353      273.0000      130.7134  2922000   52.12%
     38    40      131.2813   380      273.0000      130.7134  2973238   52.12%
     39    41      131.3033   358      273.0000      130.7134  3022079   52.12%
     40    42      131.3040   350      273.0000      130.7134  3022701   52.12%
     41    43      131.3167   350      273.0000      130.7134  3034252   52.12%
Elapsed time = 10733.63 sec. (14375950.06 ticks, tree = 10.90 MB, solutions = 1)
     42    44      131.3124   351      273.0000      130.7134  3043985   52.12%
     43    45      131.3177   356      273.0000      130.7134  3045621   52.12%
     44    46      131.3177   342      273.0000      130.7134  3047675   52.12%
     45    47      131.3189   344      273.0000      130.7134  3051771   52.12%
     46    48      131.3546   329      273.0000      130.7134  3078800   52.12%
     47    49      131.3688   340      273.0000      130.7134  3086818   52.12%
     48    50      131.3883   336      273.0000      130.7134  3096245   52.12%
     49    51      131.3980   340      273.0000      130.7134  3106819   52.12%
     50    52      131.4168   329      273.0000      130.7134  3133411   52.12%
     51    53      131.4201   317      273.0000      130.7134  3137838   52.12%
Elapsed time = 10992.06 sec. (14724304.33 ticks, tree = 13.20 MB, solutions = 1)
     52    54      131.4422   315      273.0000      130.7134  3164592   52.12%
     53    55      131.4879   335      273.0000      130.7134  3217598   52.12%
     54    56      131.4719   329      273.0000      130.7134  3242188   52.12%
     55    57      131.6170   324      273.0000      130.7134  3298960   52.12%
     56    58      131.4930   331      273.0000      130.7134  3334266   52.12%
     57    59      131.4880   315      273.0000      130.7134  3352292   52.12%
     58    60      131.5417   319      273.0000      130.7134  3401388   52.12%
     59    61      131.5614   329      273.0000      130.7134  3471296   52.12%
     60    62      131.5629   306      273.0000      130.7134  3513369   52.12%
     61    63      131.5722   309      273.0000      130.7134  3533540   52.12%
Elapsed time = 11928.97 sec. (15971228.44 ticks, tree = 15.08 MB, solutions = 1)
     62    64      131.5854   310      273.0000      130.7134  3542268   52.12%
     63    65      131.5722   308      273.0000      130.7134  3542351   52.12%
     64    66      131.5848   322      273.0000      130.7134  3593254   52.12%
     65    67      131.5991   312      273.0000      130.7134  3630365   52.12%
     66    68      131.6246   306      273.0000      130.7134  3667930   52.12%
     67    69      131.6399   308      273.0000      130.7134  3708917   52.12%
     68    70      131.6442   292      273.0000      130.7134  3724129   52.12%
     69    71      131.6443   295      273.0000      130.7134  3725466   52.12%
     70    72      131.6444   291      273.0000      130.7134  3725943   52.12%
     71    73      131.6731   295      273.0000      130.7134  3743102   52.12%
Elapsed time = 12408.19 sec. (16609823.50 ticks, tree = 17.18 MB, solutions = 1)
     72    74      131.7163   307      273.0000      130.7134  3777308   52.12%
     73    75      131.6890   301      273.0000      130.7134  3790269   52.12%
     74    76      131.7283   295      273.0000      130.7134  3830234   52.12%
     75    77      131.7414   296      273.0000      130.7134  3837757   52.12%
     76    78      131.7748   290      273.0000      130.7134  3856279   52.12%
     77    79      131.7927   288      273.0000      130.7134  3863856   52.12%
     78    80      131.8116   310      273.0000      130.7134  3893548   52.12%
     79    81      132.0472   298      273.0000      130.7134  3932210   52.12%
     80    82      131.8323   312      273.0000      130.7134  3943620   52.12%
     81    83      131.9436   294      273.0000      130.7134  3979670   52.12%
Elapsed time = 12927.05 sec. (17306632.78 ticks, tree = 19.48 MB, solutions = 1)
     82    84      131.9598   301      273.0000      130.7134  3988130   52.12%
     83    85      131.9815   289      273.0000      130.7134  4011602   52.12%
     84    86      132.0035   288      273.0000      130.7134  4027406   52.12%
     85    87      132.0301   283      273.0000      130.7134  4048282   52.12%
     86    88      132.0417   273      273.0000      130.7134  4056436   52.12%
     87    89      132.0681   279      273.0000      130.7134  4071478   52.12%
     88    90      132.0778   283      273.0000      130.7134  4087207   52.12%
     89    91      132.1137   283      273.0000      130.7134  4096557   52.12%
     90    92      132.0892   283      273.0000      130.7134  4105018   52.12%
     91    93      132.2185   265      273.0000      130.7134  4133595   52.12%
Elapsed time = 13263.22 sec. (17760530.34 ticks, tree = 21.57 MB, solutions = 1)
     92    94      132.2608   267      273.0000      130.7134  4149993   52.12%
     93    95      132.3062   267      273.0000      130.7134  4171996   52.12%
     94    96      132.3450   271      273.0000      130.7134  4187114   52.12%
     95    97      132.4323   267      273.0000      130.7134  4201965   52.12%
     96    98      132.3692   267      273.0000      130.7134  4209715   52.12%
     97    99      132.4118   285      273.0000      130.7134  4231269   52.12%
     98   100      132.4274   281      273.0000      130.7134  4246583   52.12%
     99   101      132.4543   271      273.0000      130.7134  4252821   52.12%
*   100+  100                          239.0000      130.7134            45.31%

Cover cuts applied:  62
Implied bound cuts applied:  4919
Flow cuts applied:  879
Mixed integer rounding cuts applied:  600
Flow path cuts applied:  46
Gomory fractional cuts applied:  2

Root node processing (before b&c):
  Real time             = 6905.29 sec. (9179922.67 ticks)
Sequential b&c:
  Real time             = 7494.76 sec. (10368991.13 ticks)
                          ------------
Total (root+branch&cut) = 14400.05 sec. (19548913.80 ticks)

Solution pool: 2 solutions saved.

MIP - Time limit exceeded, integer feasible:  Objective =  2.3900000000e+02
Current MIP best bound =  1.3071343392e+02 (gap = 108.287, 45.31%)
Solution time = 14400.05 sec.  Iterations = 4267283  Nodes = 100 (101)
Deterministic time = 19548916.33 ticks  (1357.56 ticks/sec)


Incumbent solution written to file '/tmp/tmpg2EPFF.cplex.sol'.
